
%FILE DATA:	Soccer Computational Problem for MiniZinc Models	%
%AUTHOR:	Jack Wall	%
%CONTACT:  	116397063@umail.ucc.ie			%
%LAST UPDATE:	03/19/2020, 18:19:11						%
%DESCRIPTION: 	192 games played with 48 games left				%


n=16; %number of teams

%Games to play
games=[|4,2|10,9|6,7|9,13|6,3|6,5|14,4|12,16|3,1|10,11|1,3|4,7|15,10|16,11|9,7|2,14|5,13|6,10|6,8|8,12|11,13|15,12|15,14|12,9|11,9|8,5|13,3|9,11|10,15|14,8|6,2|11,8|7,12|9,16|15,1|15,5|10,4|5,10|6,13|3,16|10,7|7,6|6,9|6,1|4,12|1,8|6,16|6,15|];

%Initial points
iPoints=[31,40,39,24,31,31,34,24,30,38,29,36,30,37,26,36];

%POSITION CONSTRAINTS
% [|teamID, operator, position|...]
% operators index:
%  1 for =  operator
%  2 for >  operator
%  3 for >= operator
%  4 for <  operator
%  5 for <= operator
positionConstraints=[|12,1,1|3,2,1|];